500
200 200
1 160 219
2 160 372
3 160 410
4 160 450
5 160 817
6 159 383
7 158 924
8 158 769
9 158 270
10 157 928
11 157 24
12 157 931
13 157 8
14 157 131
15 156 762
16 156 306
17 156 254
18 156 907
19 156 893
20 156 219
21 156 410
22 156 967
23 155 589
24 155 317
25 155 849
26 154 896
27 154 441
28 154 145
29 154 59
30 153 180
31 153 125
32 153 143
33 153 1000
34 152 115
35 152 703
36 152 522
37 152 857
38 151 425
39 151 980
40 151 228
41 150 483
42 150 896
43 149 511
44 149 475
45 149 726
46 149 528
47 149 921
48 148 541
49 148 706
50 147 474
51 147 818
52 146 466
53 146 656
54 146 741
55 145 14
56 145 528
57 145 260
58 145 16
59 145 164
60 144 858
61 144 957
62 144 574
63 144 395
64 144 835
65 143 613
66 143 297
67 143 216
68 143 474
69 143 294
70 143 646
71 142 14
72 142 346
73 142 942
74 141 120
75 141 982
76 141 436
77 141 844
78 141 720
79 140 879
80 140 658
81 140 182
82 140 154
83 139 982
84 139 161
85 139 483
86 139 973
87 138 361
88 138 425
89 137 485
90 137 663
91 137 142
92 136 59
93 136 763
94 136 502
95 136 375
96 136 312
97 135 971
98 135 767
99 135 484
100 135 537
101 135 163
102 134 254
103 134 954
104 134 300
105 134 464
106 134 526
107 133 653
108 133 920
109 133 972
110 133 960
111 132 241
112 132 107
113 132 385
114 131 648
115 131 751
116 131 371
117 130 772
118 130 451
119 130 218
120 130 399
121 130 523
122 130 194
123 130 402
124 130 460
125 129 811
126 128 26
127 128 682
128 128 213
129 127 936
130 127 269
131 127 311
132 126 111
133 126 45
134 126 690
135 126 321
136 125 606
137 125 463
138 124 525
139 124 169
140 123 109
141 123 991
142 123 419
143 123 365
144 123 265
145 123 404
146 123 690
147 123 338
148 122 130
149 122 264
150 122 842
151 121 702
152 121 94
153 121 664
154 121 499
155 121 471
156 121 695
157 121 952
158 121 860
159 120 595
160 120 252
161 120 94
162 119 549
163 119 249
164 119 680
165 119 514
166 119 288
167 119 501
168 118 616
169 118 330
170 118 306
171 117 792
172 117 48
173 117 724
174 117 658
175 117 231
176 116 377
177 116 968
178 116 998
179 116 303
180 115 249
181 115 860
182 114 380
183 113 124
184 113 888
185 113 326
186 113 84
187 112 948
188 112 407
189 112 6
190 112 485
191 112 732
192 111 127
193 111 437
194 111 146
195 110 832
196 110 499
197 109 147
198 109 49
199 109 978
200 109 394
201 109 657
202 108 187
203 108 333
204 108 234
205 107 827
206 107 333
207 107 393
208 107 657
209 106 911
210 106 179
211 106 416
212 106 173
213 105 463
214 105 897
215 105 641
216 104 259
217 104 526
218 104 684
219 103 416
220 102 640
221 102 43
222 102 506
223 102 445
224 101 89
225 100 636
226 100 667
227 100 572
228 99 658
229 99 974
230 99 825
231 99 372
232 98 162
233 98 215
234 98 301
235 98 431
236 98 76
237 97 391
238 97 537
239 97 137
240 97 852
241 97 922
242 97 684
243 96 227
244 96 45
245 96 271
246 95 493
247 95 351
248 95 757
249 95 424
250 95 199
251 95 942
252 94 121
253 94 934
254 94 828
255 93 920
256 93 963
257 93 503
258 93 585
259 92 742
260 92 832
261 92 492
262 92 783
263 91 982
264 91 104
265 91 564
266 91 203
267 91 910
268 90 875
269 90 814
270 90 290
271 90 789
272 90 90
273 90 226
274 90 414
275 89 12
276 89 23
277 89 807
278 89 820
279 89 555
280 88 211
281 88 573
282 88 996
283 88 596
284 88 688
285 88 278
286 88 430
287 88 397
288 87 428
289 87 272
290 87 607
291 87 355
292 87 498
293 86 69
294 86 623
295 86 986
296 86 463
297 86 392
298 86 974
299 86 718
300 85 700
301 85 372
302 84 653
303 84 856
304 84 859
305 84 49
306 83 744
307 83 591
308 83 124
309 83 483
310 82 978
311 82 378
312 82 180
313 82 27
314 81 699
315 81 587
316 81 646
317 81 523
318 81 260
319 80 449
320 80 286
321 80 291
322 80 850
323 79 591
324 79 679
325 79 365
326 79 102
327 78 578
328 78 600
329 78 903
330 78 215
331 78 248
332 78 332
333 77 510
334 77 75
335 76 96
336 76 636
337 76 180
338 76 680
339 76 89
340 75 623
341 75 564
342 75 822
343 75 404
344 75 408
345 74 636
346 74 412
347 74 362
348 74 1
349 74 121
350 73 726
351 73 935
352 73 626
353 73 298
354 73 266
355 73 455
356 73 310
357 73 724
358 73 805
359 72 995
360 72 425
361 72 184
362 72 24
363 72 638
364 71 647
365 71 601
366 71 398
367 70 865
368 70 109
369 70 43
370 70 619
371 70 367
372 69 214
373 69 274
374 69 184
375 68 940
376 67 414
377 67 572
378 67 909
379 66 628
380 66 459
381 65 268
382 65 561
383 65 343
384 65 619
385 65 784
386 65 682
387 65 76
388 65 692
389 64 843
390 64 541
391 64 980
392 63 845
393 63 714
394 63 596
395 63 464
396 63 565
397 63 170
398 62 84
399 62 924
400 62 221
401 62 479
402 61 173
403 61 29
404 61 580
405 61 795
406 61 350
407 61 602
408 61 987
409 61 202
410 61 69
411 60 505
412 60 352
413 60 711
414 60 473
415 59 936
416 59 42
417 59 802
418 58 407
419 58 98
420 58 318
421 58 564
422 58 18
423 58 204
424 58 1
425 57 489
426 57 823
427 56 510
428 56 217
429 56 803
430 55 799
431 55 514
432 55 514
433 55 956
434 55 729
435 54 9
436 54 814
437 54 781
438 54 939
439 54 815
440 54 429
441 54 22
442 54 218
443 53 813
444 53 618
445 53 20
446 53 876
447 52 502
448 52 826
449 52 55
450 52 252
451 52 747
452 52 0
453 51 50
454 51 249
455 50 731
456 50 742
457 50 297
458 50 444
459 50 85
460 50 808
461 49 744
462 49 688
463 49 967
464 48 874
465 48 375
466 47 426
467 47 937
468 47 726
469 46 713
470 45 810
471 45 68
472 45 36
473 45 123
474 45 421
475 45 65
476 45 787
477 45 178
478 45 219
479 44 37
480 44 225
481 44 724
482 44 88
483 44 923
484 44 496
485 43 628
486 43 87
487 43 115
488 43 87
489 42 85
490 42 210
491 41 691
492 41 495
493 41 141
494 41 966
495 40 520
496 40 621
497 40 911
498 40 470
499 40 72
500 40 89
